
Gurobi 12.0.2 (win64) logging started Sun Jun  8 11:32:17 2025

Set parameter LogFile to value "C:\Ioana\_uni\honours\slp\algorithm\Main_files\results\others\prox_tubules_new_model\Task_002_Sample004_irr_gurobi.log"
Gurobi Optimizer version 12.0.2 build v12.0.2rc0 (win64 - Windows 11.0 (26100.2))

CPU model: Intel(R) Core(TM) Ultra 5 125H, instruction set [SSE2|AVX|AVX2]
Thread count: 14 physical cores, 18 logical processors, using up to 18 threads

Non-default parameters:
TimeLimit  2200

Optimize a model with 47226 rows, 34496 columns and 146683 nonzeros
Model fingerprint: 0xc5f93c43
Variable types: 17251 continuous, 17245 integer (17245 binary)
Coefficient statistics:
  Matrix range     [1e-04, 8e+04]
  Objective range  [1e-04, 3e+00]
  Bounds range     [1e+00, 1e+03]
  RHS range        [1e+00, 1e+00]
Presolve removed 30824 rows and 21543 columns
Presolve time: 0.32s
Presolved: 16402 rows, 12953 columns, 54576 nonzeros
Variable types: 6410 continuous, 6543 integer (6543 binary)

Root relaxation: objective 1.870165e-03, 2310 iterations, 0.15 seconds (0.25 work units)

    Nodes    |    Current Node    |     Objective Bounds      |     Work
 Expl Unexpl |  Obj  Depth IntInf | Incumbent    BestBd   Gap | It/Node Time

     0     0    0.00187    0    4          -    0.00187      -     -    0s
H    0     0                       1.8701648    0.00187   100%     -    0s
     0     0    0.99877    0    4    1.87016    0.99877  46.6%     -    1s
     0     0    1.87016    0    1    1.87016    1.87016  0.00%     -    1s

Cutting planes:
  Flow cover: 2
  Relax-and-lift: 2

Explored 1 nodes (4758 simplex iterations) in 1.09 seconds (1.30 work units)
Thread count was 18 (of 18 available processors)

Solution count 1: 1.87016 

Optimal solution found (tolerance 1.00e-04)
Best objective 1.870164766729e+00, best bound 1.870164766729e+00, gap 0.0000%
